
Gurobi 11.0.3 (win64) logging started Thu Sep 26 13:40:21 2024

Set parameter LogFile to value "C:\Users\ealvarezq\Desktop\E.Representative_days_based_on_Line_Benefits_OptModel\IEEE118_mod1_ByStages_nc190/openStarNet_IEEE118_mod1_ByStages_nc190.log"
Set parameter Method to value 2
Set parameter MIPFocus to value 1
Set parameter Presolve to value 2
Set parameter RINS to value 100
Set parameter MIPGap to value 0.01
Set parameter Threads to value 24
Set parameter TimeLimit to value 259200
Set parameter IterationLimit to value 760000000
Gurobi Optimizer version 11.0.3 build v11.0.3rc0 (win64 - Windows Server 2019.0 (17763.2))

CPU model: AMD Ryzen Threadripper PRO 3955WX 16-Cores, instruction set [SSE2|AVX|AVX2]
Thread count: 16 physical cores, 32 logical processors, using up to 24 threads

Optimize a model with 269993 rows, 199208 columns and 694862 nonzeros
Model fingerprint: 0xc095f27c
Variable types: 199174 continuous, 34 integer (34 binary)
Coefficient statistics:
  Matrix range     [3e-04, 9e+03]
  Objective range  [1e+00, 1e+00]
  Bounds range     [1e-04, 3e+00]
  RHS range        [2e-04, 3e+00]
Presolve removed 182452 rows and 91448 columns
Presolve time: 2.48s
Presolved: 87541 rows, 107760 columns, 320014 nonzeros
Variable types: 107726 continuous, 34 integer (34 binary)
Root relaxation presolved: 87541 rows, 107760 columns, 320014 nonzeros

Root barrier log...

Ordering time: 0.07s

Barrier statistics:
 Dense cols : 34
 AA' NZ     : 3.961e+05
 Factor NZ  : 1.567e+06 (roughly 100 MB of memory)
 Factor Ops : 3.449e+07 (less than 1 second per iteration)
 Threads    : 23

                  Objective                Residual
Iter       Primal          Dual         Primal    Dual     Compl     Time
   0   8.82174696e+06 -3.62090785e+09  1.55e+01 2.83e+03  6.17e+04     4s
   1   2.13359530e+06 -1.39805543e+09  3.46e+00 1.49e-07  1.28e+04     4s
   2   5.55019769e+05 -5.22492818e+08  6.16e-01 9.20e-08  2.91e+03     4s
   3   3.31203277e+05 -1.28817334e+08  1.83e-01 1.66e-08  6.27e+02     4s
   4   2.22405376e+05 -1.88132995e+07  1.30e-02 1.97e-09  7.63e+01     4s
   5   1.74442698e+05 -4.83393897e+06  5.24e-03 4.47e-10  1.97e+01     4s
   6   1.03779013e+05 -1.17368476e+06  1.63e-03 3.31e-10  4.97e+00     4s
   7   5.69977308e+04 -3.81150237e+05  6.64e-04 2.84e-11  1.70e+00     4s
   8   2.48266646e+04 -1.19613808e+05  1.60e-04 9.15e-12  5.59e-01     4s
   9   1.45079611e+04 -5.25121788e+04  7.71e-05 1.20e-11  2.59e-01     4s
  10   1.03864584e+04 -1.57653122e+04  5.12e-05 6.32e-12  1.01e-01     4s
  11   6.81418003e+03 -6.20001530e+03  3.09e-05 5.86e-12  5.03e-02     4s
  12   4.17838266e+03 -3.41509486e+03  1.58e-05 6.20e-12  2.94e-02     4s
  13   3.11379434e+03 -1.35571533e+03  9.91e-06 7.43e-12  1.73e-02     5s
  14   2.31892195e+03 -8.38380136e+01  5.85e-06 7.31e-12  9.30e-03     5s
  15   1.84182647e+03  6.50442894e+02  3.40e-06 4.88e-12  4.61e-03     5s
  16   1.69756759e+03  8.06106174e+02  2.71e-06 4.61e-12  3.45e-03     5s
  17   1.58088194e+03  8.71523183e+02  2.07e-06 5.68e-12  2.74e-03     5s
  18   1.54782134e+03  9.07445716e+02  1.89e-06 7.35e-12  2.48e-03     5s
  19   1.48156210e+03  9.70587270e+02  1.54e-06 8.41e-12  1.98e-03     5s
  20   1.40455378e+03  1.01657461e+03  1.17e-06 5.15e-12  1.50e-03     5s
  21   1.33148314e+03  1.07078895e+03  8.09e-07 9.49e-12  1.01e-03     5s
  22   1.28969019e+03  1.10556495e+03  5.76e-07 5.81e-12  7.12e-04     5s
  23   1.25046160e+03  1.13498429e+03  3.77e-07 1.09e-11  4.47e-04     5s
  24   1.22290622e+03  1.15431892e+03  2.29e-07 7.66e-12  2.65e-04     5s
  25   1.21069719e+03  1.16517822e+03  1.63e-07 9.14e-12  1.76e-04     5s
  26   1.20181123e+03  1.17112011e+03  1.14e-07 6.24e-12  1.19e-04     5s
  27   1.19607477e+03  1.17342379e+03  8.24e-08 5.56e-12  8.76e-05     5s
  28   1.19218505e+03  1.17549267e+03  6.13e-08 4.87e-12  6.46e-05     5s
  29   1.18784691e+03  1.17691751e+03  3.79e-08 7.41e-12  4.23e-05     5s
  30   1.18499398e+03  1.17857394e+03  2.27e-08 1.10e-11  2.48e-05     5s
  31   1.18237264e+03  1.17958680e+03  9.01e-09 1.24e-11  1.08e-05     5s
  32   1.18165618e+03  1.18010061e+03  5.30e-09 9.06e-12  6.02e-06     5s
  33   1.18108086e+03  1.18026161e+03  2.37e-09 6.74e-12  3.17e-06     5s
  34   1.18086730e+03  1.18042733e+03  1.30e-09 1.41e-11  1.70e-06     6s
  35   1.18069757e+03  1.18050061e+03  5.13e-10 1.11e-11  7.62e-07     6s
  36   1.18065805e+03  1.18056355e+03  5.03e-10 5.79e-12  3.66e-07     6s
  37   1.18061691e+03  1.18058147e+03  1.47e-09 4.53e-12  1.37e-07     6s
  38   1.18060510e+03  1.18059221e+03  1.35e-09 2.99e-12  4.99e-08     6s
  39   1.18059851e+03  1.18059613e+03  3.44e-10 3.36e-12  9.18e-09     6s
  40   1.18059754e+03  1.18059725e+03  1.12e-10 7.63e-12  1.13e-09     6s
  41   1.18059749e+03  1.18059748e+03  1.04e-10 9.66e-12  5.65e-11     6s
  42   1.18059749e+03  1.18059749e+03  6.48e-11 7.31e-12  1.42e-13     6s

Barrier solved model in 42 iterations and 6.01 seconds (4.35 work units)
Optimal objective 1.18059749e+03


Root crossover log...

   18341 DPushes remaining with DInf 8.7300214e-05                 6s
       0 DPushes remaining with DInf 0.0000000e+00                 7s

    1079 PPushes remaining with PInf 0.0000000e+00                 7s
       0 PPushes remaining with PInf 0.0000000e+00                 7s

  Push phase complete: Pinf 0.0000000e+00, Dinf 3.9390762e-11      7s


Root simplex log...

Iteration    Objective       Primal Inf.    Dual Inf.      Time
    7855    1.1805975e+03   0.000000e+00   0.000000e+00      7s
    7855    1.1805975e+03   0.000000e+00   0.000000e+00      7s

Root relaxation: objective 1.180597e+03, 7855 iterations, 4.41 seconds (2.91 work units)

    Nodes    |    Current Node    |     Objective Bounds      |     Work
 Expl Unexpl |  Obj  Depth IntInf | Incumbent    BestBd   Gap | It/Node Time

     0     0 1180.59749    0   23          - 1180.59749      -     -    8s
H    0     0                    8345.1302102 1180.59749  85.9%     -   19s
H    0     0                    3764.4519044 1180.59749  68.6%     -   35s
     0     0 1195.92106    0   20 3764.45190 1195.92106  68.2%     -   68s
H    0     0                    3585.2443139 1195.92106  66.6%     -   82s
     0     0 1196.53294    0   20 3585.24431 1196.53294  66.6%     -   83s
     0     0 1196.54590    0   21 3585.24431 1196.54590  66.6%     -   84s
     0     0 1197.82629    0   20 3585.24431 1197.82629  66.6%     -   92s
     0     0 1197.83835    0   21 3585.24431 1197.83835  66.6%     -   94s
     0     0 1197.83838    0   21 3585.24431 1197.83838  66.6%     -   94s
     0     0 1197.91507    0   20 3585.24431 1197.91507  66.6%     -   97s
     0     0 1197.91628    0   20 3585.24431 1197.91628  66.6%     -   99s
     0     0 1197.96509    0   20 3585.24431 1197.96509  66.6%     -  101s
     0     0 1197.96556    0   20 3585.24431 1197.96556  66.6%     -  108s
H    0     0                    1284.9976078 1197.96556  6.77%     - 2588s
     0     2 1197.96556    0   20 1284.99761 1197.96556  6.77%     - 2592s
     1     4 1244.98351    1   19 1284.99761 1197.97475  6.77% 11409 2628s
     3     6     cutoff    2      1284.99761 1204.44807  6.27%  8403 2686s
     7    10 1227.81554    3   20 1284.99761 1221.61208  4.93%  6943 2776s
    13    14 1282.93893    4   18 1284.99761 1227.82918  4.45%  7642 2912s
    23    18     cutoff    5      1284.99761 1230.08242  4.27%  8739 2961s
    37    22 1258.88863    6   15 1284.99761 1240.16677  3.49%  7268 2988s
    55    34 1260.96160    7   15 1284.99761 1242.55501  3.30%  6102 3080s
    77    36 1272.12815    8   14 1284.99761 1248.67131  2.83%  5617 3250s
   101    38     cutoff    9      1284.99761 1252.55856  2.52%  6509 3324s
   125    54 1272.85951   10   10 1284.99761 1252.56214  2.52%  5982 3387s
   155    56 1276.51076   11   10 1284.99761 1252.56214  2.52%  5459 3443s
   196    58 1282.53175   13    8 1284.99761 1252.56214  2.52%  4832 3454s
   235    48     cutoff   14      1284.99761 1252.56214  2.52%  4295 3495s
   274    42     cutoff   12      1284.99761 1258.56070  2.06%  3994 3538s
   316    24 1267.69245   10   10 1284.99761 1258.56070  2.06%  3846 3566s
   361    31 1270.22206   11    9 1284.99761 1258.56070  2.06%  3574 3617s
   394    19 1283.20166   12    8 1284.99761 1258.56070  2.06%  3452 3665s
   440    12     cutoff   13      1284.99761 1267.16687  1.39%  3316 3678s
   471    11 1275.40686   10   11 1284.99761 1267.16687  1.39%  3173 3718s
   488     4     cutoff   11      1284.99761 1277.74028  0.56%  3196 3744s

Cutting planes:
  Gomory: 1
  Implied bound: 2
  MIR: 681
  Flow cover: 1
  Relax-and-lift: 22

Explored 501 nodes (1598540 simplex iterations) in 3744.56 seconds (2794.41 work units)
Thread count was 24 (of 32 available processors)

Solution count 4: 1285 3585.24 3764.45 8345.13 

Optimal solution found (tolerance 1.00e-02)
Best objective 1.284997607792e+03, best bound 1.279028652343e+03, gap 0.4645%

Gurobi 11.0.3 (win64) logging started Thu Sep 26 14:46:03 2024

Set parameter LogFile to value "C:\Users\ealvarezq\Desktop\E.Representative_days_based_on_Line_Benefits_OptModel\IEEE118_mod1_ByStages_nc190/openStarNet_IEEE118_mod1_ByStages_nc190.log"
Set parameter Method to value 2
Set parameter MIPFocus to value 1
Set parameter Presolve to value 2
Set parameter RINS to value 100
Set parameter MIPGap to value 0.01
Set parameter Threads to value 24
Set parameter TimeLimit to value 259200
Set parameter IterationLimit to value 760000000
Gurobi Optimizer version 11.0.3 build v11.0.3rc0 (win64 - Windows Server 2019.0 (17763.2))

CPU model: AMD Ryzen Threadripper PRO 3955WX 16-Cores, instruction set [SSE2|AVX|AVX2]
Thread count: 16 physical cores, 32 logical processors, using up to 24 threads

Optimize a model with 269993 rows, 199174 columns and 668988 nonzeros
Model fingerprint: 0x0f766942
Coefficient statistics:
  Matrix range     [3e-04, 9e+03]
  Objective range  [1e+00, 1e+00]
  Bounds range     [1e-04, 3e+00]
  RHS range        [2e-04, 2e+02]
Presolve removed 201231 rows and 87383 columns
Presolve time: 0.67s
Presolved: 68762 rows, 112548 columns, 270322 nonzeros

Ordering time: 0.04s

Barrier statistics:
 AA' NZ     : 2.281e+05
 Factor NZ  : 9.039e+05 (roughly 80 MB of memory)
 Factor Ops : 1.311e+07 (less than 1 second per iteration)
 Threads    : 24

                  Objective                Residual
Iter       Primal          Dual         Primal    Dual     Compl     Time
   0   1.43882023e+07 -1.64271310e+09  8.10e+01 1.65e+02  2.55e+04     1s
   1   2.13111673e+06 -4.72499663e+08  1.09e+01 3.18e-12  3.85e+03     1s
   2   4.35202188e+05 -9.57483033e+07  1.48e+00 2.73e-12  5.62e+02     1s
   3   1.83932069e+05 -1.30061841e+07  3.77e-02 2.05e-12  5.56e+01     1s
   4   1.01717779e+05 -1.64859941e+06  1.61e-03 1.82e-12  7.13e+00     1s
   5   5.16121487e+04 -5.36370673e+05  5.97e-04 6.82e-13  2.39e+00     1s
   6   2.78568812e+04 -2.18199442e+05  2.15e-04 8.53e-13  1.00e+00     1s
   7   1.58170640e+04 -6.12913233e+04  8.48e-05 5.52e-13  3.14e-01     1s
   8   9.43633207e+03 -2.00713950e+04  4.29e-05 5.63e-13  1.20e-01     1s
   9   5.20202225e+03 -7.65532391e+03  1.98e-05 5.17e-13  5.23e-02     2s
  10   3.34509481e+03 -1.59151187e+03  9.91e-06 7.83e-13  2.01e-02     2s
  11   2.39241068e+03 -1.20595061e+02  5.18e-06 5.31e-13  1.02e-02     2s
  12   1.94295044e+03  5.13076623e+02  2.98e-06 4.84e-13  5.81e-03     2s
  13   1.67848773e+03  8.41040998e+02  1.71e-06 3.99e-13  3.41e-03     2s
  14   1.52331454e+03  1.02136267e+03  1.00e-06 4.04e-13  2.04e-03     2s
  15   1.44914152e+03  1.12986937e+03  6.70e-07 4.91e-13  1.30e-03     2s
  16   1.38629727e+03  1.21248595e+03  4.11e-07 4.43e-13  7.07e-04     2s
  17   1.35569005e+03  1.24329721e+03  2.82e-07 5.55e-13  4.57e-04     2s
  18   1.32312088e+03  1.25927650e+03  1.58e-07 5.47e-13  2.60e-04     2s
  19   1.31372191e+03  1.26560665e+03  1.18e-07 4.47e-13  1.96e-04     2s
  20   1.30220794e+03  1.27370033e+03  7.08e-08 4.30e-13  1.16e-04     2s
  21   1.29445052e+03  1.28165515e+03  3.79e-08 5.32e-13  5.20e-05     2s
  22   1.28894585e+03  1.28310341e+03  1.54e-08 6.00e-13  2.38e-05     2s
  23   1.28800954e+03  1.28383918e+03  1.17e-08 6.13e-13  1.70e-05     2s
  24   1.28644523e+03  1.28435739e+03  5.55e-09 5.10e-13  8.49e-06     2s
  25   1.28584842e+03  1.28467909e+03  3.22e-09 5.71e-13  4.75e-06     2s
  26   1.28544180e+03  1.28481582e+03  1.65e-09 4.73e-13  2.55e-06     2s
  27   1.28516008e+03  1.28496473e+03  5.78e-10 9.21e-13  7.94e-07     2s
  28   1.28509703e+03  1.28497998e+03  5.04e-10 3.39e-13  4.76e-07     2s
  29   1.28502086e+03  1.28499246e+03  8.35e-10 6.12e-13  1.16e-07     2s
  30   1.28500019e+03  1.28499649e+03  1.38e-09 5.66e-13  1.50e-08     2s
  31   1.28499772e+03  1.28499747e+03  6.22e-09 7.99e-13  1.04e-09     2s
  32   1.28499762e+03  1.28499760e+03  7.38e-10 7.23e-13  1.04e-10     2s
  33   1.28499761e+03  1.28499761e+03  1.46e-10 4.17e-13  5.18e-13     2s

Barrier solved model in 33 iterations and 2.40 seconds (1.49 work units)
Optimal objective 1.28499761e+03

Crossover log...

   19456 DPushes remaining with DInf 0.0000000e+00                 3s
       0 DPushes remaining with DInf 0.0000000e+00                 3s

     678 PPushes remaining with PInf 0.0000000e+00                 3s
       0 PPushes remaining with PInf 0.0000000e+00                 3s

  Push phase complete: Pinf 0.0000000e+00, Dinf 2.4576330e-12      3s

Extra simplex iterations after uncrush: 2
Iteration    Objective       Primal Inf.    Dual Inf.      Time
    8155    1.2849976e+03   0.000000e+00   0.000000e+00      4s

Solved in 8155 iterations and 3.66 seconds (2.18 work units)
Optimal objective  1.284997608e+03

Gurobi 11.0.0 (linux64) logging started Mon Nov  4 16:16:42 2024

Set parameter LogFile to value "/lustre1/scratch/348/vsc34888/JointResearch/05.Models/06.Benchmarking/E.Representative_days_based_on_Line_Benefits_OptModel/IEEE118_mod1_ByStages_nc190/openStarNet_IEEE118_mod1_ByStages_nc190.log"
Set parameter Method to value 2
Set parameter MIPFocus to value 1
Set parameter Presolve to value 2
Set parameter RINS to value 100
Set parameter MIPGap to value 0.01
Set parameter Threads to value 36
Set parameter TimeLimit to value 259200
Set parameter IterationLimit to value 760000000
Gurobi Optimizer version 11.0.0 build v11.0.0rc2 (linux64 - "Rocky Linux 8.9 (Green Obsidian)")

CPU model: Intel(R) Xeon(R) Gold 6240 CPU @ 2.60GHz, instruction set [SSE2|AVX|AVX2|AVX512]
Thread count: 36 physical cores, 36 logical processors, using up to 36 threads

Optimize a model with 272835 rows, 201476 columns and 702520 nonzeros
Model fingerprint: 0x748495ec
Variable types: 201442 continuous, 34 integer (34 binary)
Coefficient statistics:
  Matrix range     [3e-04, 9e+03]
  Objective range  [1e+00, 1e+00]
  Bounds range     [1e-04, 3e+00]
  RHS range        [2e-04, 3e+00]
Presolve removed 184577 rows and 92799 columns
Presolve time: 1.46s
Presolved: 88258 rows, 108677 columns, 323353 nonzeros
Variable types: 108643 continuous, 34 integer (34 binary)
Root relaxation presolved: 88258 rows, 108677 columns, 323353 nonzeros

Root barrier log...

Ordering time: 0.03s

Barrier statistics:
 Dense cols : 34
 AA' NZ     : 4.008e+05
 Factor NZ  : 1.565e+06 (roughly 100 MB of memory)
 Factor Ops : 3.443e+07 (less than 1 second per iteration)
 Threads    : 35

                  Objective                Residual
Iter       Primal          Dual         Primal    Dual     Compl     Time
   0   9.40981071e+06 -2.70986165e+09  1.55e+01 1.89e+03  4.60e+04     2s
   1   2.24739096e+06 -1.04308337e+09  3.45e+00 1.04e-07  9.55e+03     2s
   2   5.81123366e+05 -3.89579719e+08  6.52e-01 3.83e-08  2.20e+03     2s
   3   3.26558214e+05 -9.76399620e+07  1.83e-01 1.19e-08  4.73e+02     2s
   4   2.10329003e+05 -1.39346853e+07  1.47e-02 1.67e-09  5.63e+01     2s
   5   1.35984312e+05 -4.39527818e+06  3.00e-03 5.07e-10  1.75e+01     2s
   6   8.49492638e+04 -1.31629655e+06  1.01e-03 1.38e-10  5.39e+00     2s
   7   4.90590966e+04 -3.74663043e+05  3.29e-04 3.74e-11  1.63e+00     2s
   8   2.82308401e+04 -1.06769954e+05  1.46e-04 9.95e-12  5.18e-01     3s
   9   1.43148292e+04 -4.97814935e+04  5.59e-05 7.28e-12  2.46e-01     3s
  10   1.13080102e+04 -2.68062085e+04  4.11e-05 5.30e-12  1.46e-01     3s
  11   5.39087186e+03 -9.54154271e+03  1.52e-05 7.28e-12  5.73e-02     3s
  12   3.53850168e+03 -4.44404573e+03  8.23e-06 7.28e-12  3.06e-02     3s
  13   2.50310774e+03 -2.05882869e+03  4.63e-06 3.64e-12  1.75e-02     3s
  14   1.97947278e+03 -8.38704914e+02  2.93e-06 3.64e-12  1.08e-02     3s
  15   1.77436144e+03 -3.47258479e+02  2.31e-06 3.64e-12  8.14e-03     3s
  16   1.40673206e+03  3.29888207e+02  1.21e-06 7.28e-12  4.13e-03     3s
  17   1.21382910e+03  6.57573588e+02  6.74e-07 9.74e-12  2.13e-03     3s
  18   1.13518278e+03  7.75567709e+02  4.65e-07 3.64e-12  1.38e-03     3s
  19   1.08979552e+03  8.15863900e+02  3.47e-07 7.28e-12  1.05e-03     3s
  20   1.05531264e+03  8.54775226e+02  2.60e-07 7.28e-12  7.69e-04     3s
  21   1.02800488e+03  8.80948984e+02  1.92e-07 7.28e-12  5.64e-04     3s
  22   9.98888641e+02  9.10472117e+02  1.24e-07 7.28e-12  3.39e-04     3s
  23   9.75845424e+02  9.28127856e+02  6.77e-08 7.28e-12  1.83e-04     3s
  24   9.66937125e+02  9.34194301e+02  4.68e-08 7.28e-12  1.26e-04     3s
  25   9.60300629e+02  9.38693819e+02  2.98e-08 7.28e-12  8.28e-05     3s
  26   9.55369756e+02  9.42043276e+02  1.73e-08 7.28e-12  5.11e-05     3s
  27   9.52629908e+02  9.44500928e+02  1.07e-08 7.28e-12  3.12e-05     3s
  28   9.51213504e+02  9.45379456e+02  7.31e-09 7.28e-12  2.24e-05     3s
  29   9.49972759e+02  9.46317075e+02  4.38e-09 7.28e-12  1.40e-05     3s
  30   9.49228601e+02  9.47183216e+02  8.71e-09 8.56e-12  7.84e-06     3s
  31   9.48642192e+02  9.47655225e+02  3.77e-09 7.28e-12  3.78e-06     4s
  32   9.48334220e+02  9.47924782e+02  2.74e-09 7.28e-12  1.57e-06     4s
  33   9.48163244e+02  9.47993029e+02  1.26e-09 7.28e-12  6.53e-07     4s
  34   9.48081464e+02  9.48039479e+02  5.93e-10 7.28e-12  1.61e-07     4s
  35   9.48063861e+02  9.48046796e+02  5.57e-10 7.28e-12  6.54e-08     4s
  36   9.48052375e+02  9.48049024e+02  5.06e-10 7.28e-12  1.28e-08     4s
  37   9.48050077e+02  9.48049993e+02  7.99e-09 7.28e-12  3.19e-10     4s
  38   9.48050036e+02  9.48050031e+02  5.93e-09 7.28e-12  1.59e-11     4s

Barrier solved model in 38 iterations and 3.87 seconds (4.17 work units)
Optimal objective 9.48050036e+02


Root crossover log...

       0 DPushes remaining with DInf 0.0000000e+00                 5s

    2322 PPushes remaining with PInf 5.1216854e-06                 5s
       0 PPushes remaining with PInf 0.0000000e+00                 6s

  Push phase complete: Pinf 0.0000000e+00, Dinf 2.9709863e-11      6s


Root simplex log...

Iteration    Objective       Primal Inf.    Dual Inf.      Time
    8339    9.4805003e+02   0.000000e+00   0.000000e+00      6s
    8339    9.4805003e+02   0.000000e+00   0.000000e+00      6s

Root relaxation: objective 9.480500e+02, 8339 iterations, 4.02 seconds (3.49 work units)

    Nodes    |    Current Node    |     Objective Bounds      |     Work
 Expl Unexpl |  Obj  Depth IntInf | Incumbent    BestBd   Gap | It/Node Time

     0     0  948.05003    0   24          -  948.05003      -     -    6s
H    0     0                    6675.0664061  948.05003  85.8%     -   14s
H    0     0                    2371.5347069  948.05003  60.0%     -   25s
     0     0  966.63699    0   24 2371.53471  966.63699  59.2%     -   41s
     0     0  966.94061    0   23 2371.53471  966.94061  59.2%     -   42s
     0     0  966.94486    0   24 2371.53471  966.94486  59.2%     -   42s
     0     0  967.84812    0   23 2371.53471  967.84812  59.2%     -   45s
     0     0  967.84823    0   23 2371.53471  967.84823  59.2%     -   46s
     0     0  968.23144    0   21 2371.53471  968.23144  59.2%     -   49s
     0     0  968.23533    0   22 2371.53471  968.23533  59.2%     -   54s
     0     0  968.23575    0   22 2371.53471  968.23575  59.2%     -   54s
     0     0  968.56771    0   22 2371.53471  968.56771  59.2%     -   59s
     0     0  968.57184    0   22 2371.53471  968.57184  59.2%     -   60s
     0     0  968.75429    0   22 2371.53471  968.75429  59.2%     -   65s
H    0     0                    1069.6529438  968.75429  9.43%     - 1121s
     0     2  968.75429    0   22 1069.65294  968.75429  9.43%     - 1125s
     1     4 1012.68666    1   21 1069.65294  968.78368  9.43% 10405 1138s
     3     6     cutoff    2      1069.65294  976.13637  8.74%  8406 1161s
     7    12 1017.31469    3   18 1069.65294  996.54064  6.84%  6139 1181s
    13    20 1045.05675    4   19 1069.65294 1000.45719  6.47%  8158 1249s
    25    28 1049.68405    5   19 1069.65294 1003.92920  6.14%  8998 1294s
    45    37     cutoff    6      1069.65294 1008.78195  5.69%  8693 1347s
    73    45 1025.40094    7   14 1069.65294 1016.58820  4.96%  7073 1435s
   109    61 1033.45515    8   12 1069.65294 1025.90318  4.09%  7814 1464s
   145    65 1060.11597    9   10 1069.65294 1029.82013  3.72%  6574 1504s
   181    70 1061.94225   10    9 1069.65294 1029.82013  3.72%  6032 1535s
   232    71     cutoff   11      1069.65294 1032.73799  3.45%  5476 1563s
   283    63     cutoff   10      1069.65294 1032.73799  3.45%  4977 1582s
   336    39 1057.94727   13    8 1069.65294 1032.73799  3.45%  4478 1615s
   387    31     cutoff   14      1069.65294 1039.81729  2.79%  4298 1645s
   433    21 1059.67163   10   10 1069.65294 1039.81729  2.79%  4060 1662s
   468     8     cutoff   11      1069.65294 1039.81729  2.79%  3878 1686s
   493     9 1061.34407   12    9 1069.65294 1039.81729  2.79%  3772 1695s
   502     7 1068.77733   13    8 1069.65294 1039.81729  2.79%  3741 1703s
   515     1 infeasible   15      1069.65294 1039.81729  2.79%  3690 1717s
   521     0     cutoff   11      1069.65294 1069.65294  0.00%  3680 1723s

Cutting planes:
  Gomory: 1
  Implied bound: 3
  MIR: 804
  RLT: 5
  Relax-and-lift: 2

Explored 522 nodes (1939864 simplex iterations) in 1723.64 seconds (2055.47 work units)
Thread count was 36 (of 36 available processors)

Solution count 3: 1069.65 2371.53 6675.07 

Optimal solution found (tolerance 1.00e-02)
Best objective 1.069652943763e+03, best bound 1.069652943763e+03, gap 0.0000%

Gurobi 11.0.0 (linux64) logging started Mon Nov  4 16:46:31 2024

Set parameter LogFile to value "/lustre1/scratch/348/vsc34888/JointResearch/05.Models/06.Benchmarking/E.Representative_days_based_on_Line_Benefits_OptModel/IEEE118_mod1_ByStages_nc190/openStarNet_IEEE118_mod1_ByStages_nc190.log"
Set parameter Method to value 2
Set parameter MIPFocus to value 1
Set parameter Presolve to value 2
Set parameter RINS to value 100
Set parameter MIPGap to value 0.01
Set parameter Threads to value 36
Set parameter TimeLimit to value 259200
Set parameter IterationLimit to value 760000000
Gurobi Optimizer version 11.0.0 build v11.0.0rc2 (linux64 - "Rocky Linux 8.9 (Green Obsidian)")

CPU model: Intel(R) Xeon(R) Gold 6240 CPU @ 2.60GHz, instruction set [SSE2|AVX|AVX2|AVX512]
Thread count: 36 physical cores, 36 logical processors, using up to 36 threads

Optimize a model with 272835 rows, 201442 columns and 676374 nonzeros
Model fingerprint: 0xd12db0a8
Coefficient statistics:
  Matrix range     [3e-04, 9e+03]
  Objective range  [1e+00, 1e+00]
  Bounds range     [1e-04, 3e+00]
  RHS range        [2e-04, 2e+02]
Presolve removed 203507 rows and 88655 columns
Presolve time: 0.42s
Presolved: 69328 rows, 113555 columns, 274823 nonzeros

Ordering time: 0.02s

Barrier statistics:
 AA' NZ     : 2.314e+05
 Factor NZ  : 9.308e+05 (roughly 80 MB of memory)
 Factor Ops : 1.382e+07 (less than 1 second per iteration)
 Threads    : 36

                  Objective                Residual
Iter       Primal          Dual         Primal    Dual     Compl     Time
   0   1.56655816e+07 -1.44285183e+09  9.89e+01 1.52e+02  2.44e+04     1s
   1   2.02695907e+06 -4.59297173e+08  1.16e+01 2.36e-12  3.53e+03     1s
   2   4.32054498e+05 -8.84921569e+07  1.64e+00 2.49e-12  5.13e+02     1s
   3   1.87852310e+05 -1.42977335e+07  6.00e-02 1.82e-12  6.12e+01     1s
   4   1.13141231e+05 -1.80759205e+06  6.29e-03 2.73e-12  7.79e+00     1s
   5   6.78193052e+04 -5.00720030e+05  2.28e-03 9.09e-13  2.30e+00     1s
   6   3.53589735e+04 -1.53429428e+05  8.79e-04 6.82e-13  7.61e-01     1s
   7   1.98354125e+04 -4.82692925e+04  4.12e-04 4.55e-13  2.75e-01     1s
   8   1.13194410e+04 -1.94507776e+04  2.08e-04 4.55e-13  1.24e-01     1s
   9   6.50210894e+03 -8.41849416e+03  1.04e-04 4.55e-13  6.01e-02     1s
  10   4.65499218e+03 -5.24604269e+03  6.63e-05 4.55e-13  3.99e-02     1s
  11   3.17166974e+03 -1.67137962e+03  3.74e-05 4.55e-13  1.95e-02     1s
  12   2.15354887e+03 -1.57987209e+02  1.83e-05 2.27e-13  9.32e-03     1s
  13   1.71685733e+03  6.00213088e+02  1.06e-05 4.55e-13  4.50e-03     1s
  14   1.46514350e+03  7.83772394e+02  6.34e-06 4.55e-13  2.75e-03     1s
  15   1.36515933e+03  8.99062736e+02  4.69e-06 4.55e-13  1.88e-03     1s
  16   1.28608257e+03  9.61162476e+02  3.40e-06 4.55e-13  1.31e-03     1s
  17   1.22302078e+03  9.99361685e+02  2.38e-06 4.55e-13  9.01e-04     1s
  18   1.13971284e+03  1.02872997e+03  1.08e-06 4.55e-13  4.47e-04     1s
  19   1.12033307e+03  1.04473719e+03  7.75e-07 4.55e-13  3.05e-04     1s
  20   1.10360799e+03  1.05327985e+03  5.21e-07 4.55e-13  2.03e-04     1s
  21   1.08802281e+03  1.05987814e+03  2.79e-07 4.55e-13  1.13e-04     1s
  22   1.07949320e+03  1.06449635e+03  1.46e-07 4.55e-13  6.04e-05     1s
  23   1.07491174e+03  1.06657133e+03  7.71e-08 4.55e-13  3.36e-05     1s
  24   1.07299171e+03  1.06783361e+03  4.85e-08 4.55e-13  2.08e-05     1s
  25   1.07148331e+03  1.06864351e+03  2.62e-08 9.09e-13  1.14e-05     1s
  26   1.07037596e+03  1.06917989e+03  1.02e-08 4.55e-13  4.82e-06     1s
  27   1.06990435e+03  1.06944614e+03  3.44e-09 4.55e-13  1.85e-06     1s
  28   1.06972444e+03  1.06957436e+03  9.39e-10 4.55e-13  6.05e-07     1s
  29   1.06965873e+03  1.06963651e+03  6.48e-10 4.55e-13  8.96e-08     1s
  30   1.06965326e+03  1.06965235e+03  4.73e-09 4.55e-13  3.65e-09     2s
  31   1.06965295e+03  1.06965289e+03  2.74e-09 4.55e-13  2.44e-10     2s
  32   1.06965295e+03  1.06965294e+03  5.84e-10 6.82e-13  9.10e-12     2s

Barrier solved model in 32 iterations and 1.58 seconds (1.48 work units)
Optimal objective 1.06965295e+03

Crossover log...

   19846 DPushes remaining with DInf 0.0000000e+00                 2s
       0 DPushes remaining with DInf 0.0000000e+00                 2s

    1099 PPushes remaining with PInf 0.0000000e+00                 2s
       0 PPushes remaining with PInf 0.0000000e+00                 2s

  Push phase complete: Pinf 0.0000000e+00, Dinf 2.7080029e-12      2s

Extra simplex iterations after uncrush: 1
Iteration    Objective       Primal Inf.    Dual Inf.      Time
    7339    1.0696529e+03   0.000000e+00   0.000000e+00      2s

Solved in 7339 iterations and 2.40 seconds (1.95 work units)
Optimal objective  1.069652944e+03
